set VV := 0 1 2 ;
set VS := 0 1 2 3 4 5 6 7 8 9 ;
param cv := 
0 15
1 15
2 15
;
param cs := 
0 36
1 24
2 28
3 29
4 20
5 33
6 39
7 28
8 21
9 20
;
param bv:	 0 1 2 := 
		0 0 12 0 
		1 0 0 12 
		2 0 0 0 
;
param bs:	 0 1 2 3 4 5 6 7 8 9 := 
		0 0 0 25 0 0 29 0 0 0 0 
		1 0 0 0 0 0 0 0 0 23 0 
		2 25 0 0 0 26 0 0 0 0 0 
		3 0 0 0 0 0 26 0 0 0 0 
		4 0 0 26 0 0 29 0 31 0 35 
		5 29 0 0 26 29 0 0 0 0 0 
		6 0 0 0 0 0 0 0 0 24 0 
		7 0 0 0 0 31 0 0 0 0 0 
		8 0 23 0 0 0 0 24 0 0 23 
		9 0 0 0 0 35 0 0 0 23 0 
;
